JulietBench/Juliet_Based_Patch_Bench/linux/CWE-189-Numeric-Errors/CVE_2011_2906_b5b515445f4f5a905c5dd27e6e682868ccd6c09d/Resultpmcraid_ioctl_passthrough_Snippet_patch2EQ.smt2
; benchmark generated from python API
(set-info :status unknown)
(declare-fun R () (_ BitVec 32))
(declare-fun rdi () (_ BitVec 64))
(assert
 (let (($x44 (= (_ bv50 32) R)))
 (let (($x53 (= (_ bv0 32) R)))
 (let ((?x6 ((_ extract 31 0) rdi)))
 (let (($x10 (bvsge (_ bv0 32) ?x6)))
 (let (($x54 (and $x10 $x53)))
 (let (($x40 (bvslt (_ bv0 32) ?x6)))
 (let (($x49 (and $x40 $x44)))
 (let (($x55 (or $x49 $x54)))
 (and $x55 $x44))))))))))
(check-sat)
